
Gurobi 11.0.3 (linux64, gurobi_cl) logging started Sun Feb  2 10:07:12 2025

Set parameter Username
Set parameter LogFile to value "gurobi.log"
Using license file /home/alex-charly/gurobi.lic
Academic license - for non-commercial use only - expires 2026-02-02

Gurobi 11.0.3 (linux64, gurobi_cl) logging started Tue Feb 25 09:05:43 2025

Set parameter Username
Set parameter LogFile to value "gurobi.log"
Using license file /home/alex-charly/gurobi.lic
Academic license - for non-commercial use only - expires 2026-02-24

Gurobi 11.0.3 (linux64, gurobi_cl) logging started Tue Feb 25 09:11:49 2025

Set parameter Username
Set parameter LogFile to value "gurobi.log"
Using license file /home/alex-charly/gurobi.lic
Academic license - for non-commercial use only - expires 2026-02-24
